(assert (forall ((pkt_0_6_8_0  Int  )(pkt_1_7_9_0  Int  )(state_group_0_state_0_8_a_0  Int  )(state_group_1_state_0_9_b_0  Int  )(state_group_2_state_0_a_c_0  Int  )) (let ((_n0 pkt_0_6_8_0 ))
(let ((_n1 state_group_0_state_0_8_a_0 ))
(let ((_n2 (+   _n1   _n0 ) ))
(let ((_n3 30 ))
(let ((_n4 (=   _n1   _n3 ) ))
(let ((_n5 (not  _n4 ) ))
(let ((_n6 false ))
(let ((_n7 (ite (=  _n1  30)  (ite  _n6  1 0)   _n0  ) ))
(let ((_n8 (+   _n1   _n7 ) ))
(let ((_n9 (ite (=  (ite  _n5  1 0)  1)  _n8   _n1  ) ))
(let ((_n10 (=   _n9   _n2 ) ))
(let ((_n12 pkt_1_7_9_0 ))
(let ((_n13 (<   _n12   _n3 ) ))
(let ((_n14 state_group_1_state_0_9_b_0 ))
(let ((_n15 (+   _n14   _n12 ) ))
(let ((_n16 (ite  _n13   _n15   _n14  ) ))
(let ((_n17 952 ))
(let ((_n18 (=   _n14   _n17 ) ))
(let ((_n19 (not  _n18 ) ))
(let ((_n20 (=   _n12   (ite  _n6  1 0) ) ))
(let ((_n21 (not  _n20 ) ))
(let ((_n22 (ite (=  _n12  0)  (ite  _n6  1 0)   _n12  ) ))
(let ((_n23 (ite (=  (ite  _n21  1 0)  1)  _n22   (ite  _n6  1 0)  ) ))
(let ((_n24 (ite (=  _n14  952)  (ite  _n6  1 0)   _n23  ) ))
(let ((_n25 (+   _n14   _n24 ) ))
(let ((_n26 (ite (=  (ite  _n19  1 0)  1)  _n25   _n14  ) ))
(let ((_n27 (=   _n26   _n16 ) ))
(let ((_n29 state_group_2_state_0_a_c_0 ))
(let ((_n30 true ))
(let ((_n31 (+   _n29   (ite  _n30  1 0) ) ))
(let ((_n32 (ite  _n13   _n31   _n29  ) ))
(let ((_n33 337 ))
(let ((_n34 (=   _n0   _n33 ) ))
(let ((_n35 (not  _n34 ) ))
(let ((_n36 (+   _n29   (ite  _n35  1 0) ) ))
(let ((_n37 (ite (=  (ite  _n35  1 0)  1)  _n36   _n29  ) ))
(let ((_n38 (=   _n37   _n32 ) ))
(let ((_n40 (ite (=  _n12  0)  _n0   (ite  _n6  1 0)  ) ))
(let ((_n41 (ite (=  _n12  0)  _n40   _n0  ) ))
(let ((_n42 (=   _n41   _n0 ) ))
(let ((_n44 (=   _n23   _n12 ) ))
(implies  (and (and (>= state_group_2_state_0_a_c_0 0) (< state_group_2_state_0_a_c_0 1024 ))  (and (and (>= state_group_1_state_0_9_b_0 0) (< state_group_1_state_0_9_b_0 1024 ))  (and (and (>= state_group_0_state_0_8_a_0 0) (< state_group_0_state_0_8_a_0 1024 ))  (and (and (>= pkt_1_7_9_0 0) (< pkt_1_7_9_0 1024 ))  (and (>= pkt_0_6_8_0 0) (< pkt_0_6_8_0 1024 )) ) ) ) )   (and  _n10  _n27  _n38  _n42  _n44 )  ))))))))))))))))))))))))))))))))))))))))))))
(check-sat)
(get-model)
(exit)